p cnf 56 24
-10 -25 -11 -3 -51 -13 -8 -29 1 34 3 4 8 10 11 44 13 51 19 53 20 25 26 27 29 0
-44 -42 -33 -54 -28 -14 -31 -1 -55 -30 -50 -27 -20 -37 -19 -36 1 14 19 20 24 26 27 28 30 31 33 36 37 41 42 44 50 54 55 0
-31 -11 -53 -9 -39 -30 -48 -42 -46 -3 -18 -28 -7 -29 -55 -49 -24 -37 -1 -36 -19 -25 -34 -12 -23 -16 -26 -8 -40 -17 -4 -51 -13 -2 -33 -22 -6 1 2 3 4 5 6 7 8 9 11 12 13 14 15 16 17 18 19 20 21 22 23 24 25 26 28 29 30 31 33 34 35 36 37 39 40 42 43 45 46 47 48 49 51 52 53 55
-41 -13 -39 -34 -17 -15 -5 -37 -53 1 2 3 4 5 6 7 8 10 11 12 13 14 15 16 17 18 19 20 22 23 24 25 26 27 28 29 30 31 32 33 34 35 36 37 38 39 40 41 42 43 44 47 48 50 52 53 54 55 56
-23 -22 -35 -47 -55 -37 35 37 7 41 44 47 23 22 55
-48 -25 -8 -15 -54 -38 -18 32 33 37 38 8 10 43 15 48 17 18 53 54 25 26
-54 -15 -21 -37 -45 -40 -39 -20 -19 -36 -29 1 2 3 4 5 6 7 8 9 10 12 13 15 16 17 18 19 20 21 22 23 24 25 27 28 29 30 31 32 33 34 36 37 38 39 40 42 43 44 45 46 47 48 50 51 52 53 54 55 56
 2 35 45 0
-1 1 6 9 12 14 15 16 17 20 21 22 23 24 25 26 29 30 31 33 34 35 36 37 42 43 44 45 47 48 49 51 52 53 54 56
